NAME: random_points
TYPE: TSP
DIMENSION: 20
EDGE_WEIGHT_TYPE: EUC_2D
NODE_COORD_SECTION
1 916 483
2 716 613
3 782 299
4 401 794
5 845 100
6 338 326
7 362 909
8 967 682
9 197 707
10 74 795
11 565 146
12 679 290
13 359 331
14 775 365
15 438 427
16 131 586
17 702 5
18 300 903
19 84 422
20 829 538
EOF
